[VALIDATOR STDOUT]
Checking plan: /home/jfan5/Safety-gen/runs/benchmark/optic/ferry_20260205_141548/ferry/optic_results/ferry-l41-c21-s41001.plan
Plan to validate:

Plan size: 96
1:
(sail l25 l9)
 
2:
(board c9 l9)
 
3:
(sail l9 l24)
 
4:
(debark c9 l24)
 
5:
(board c19 l24)
 
6:
(sail l24 l9)
 
7:
(sail l9 l26)
 
8:
(debark c19 l26)
 
9:
(board c18 l26)
 
10:
(sail l26 l9)
 
11:
(sail l9 l11)
 
12:
(debark c18 l11)
 
13:
(sail l11 l7)
 
14:
(board c0 l7)
 
15:
(sail l7 l29)
 
16:
(debark c0 l29)
 
17:
(board c12 l29)
 
18:
(sail l29 l39)
 
19:
(debark c12 l39)
 
20:
(board c8 l39)
 
21:
(sail l39 l29)
 
22:
(debark c8 l29)
 
23:
(sail l29 l9)
 
24:
(sail l9 l40)
 
25:
(board c16 l40)
 
26:
(sail l40 l9)
 
27:
(sail l9 l15)
 
28:
(debark c16 l15)
 
29:
(board c2 l15)
 
30:
(sail l15 l9)
 
31:
(sail l9 l5)
 
32:
(debark c2 l5)
 
33:
(sail l5 l9)
 
34:
(sail l9 l4)
 
35:
(board c3 l4)
 
36:
(sail l4 l9)
 
37:
(sail l9 l27)
 
38:
(debark c3 l27)
 
39:
(sail l27 l9)
 
40:
(sail l9 l39)
 
41:
(board c6 l39)
 
42:
(sail l39 l34)
 
43:
(debark c6 l34)
 
44:
(sail l34 l9)
 
45:
(sail l9 l39)
 
46:
(board c4 l39)
 
47:
(sail l39 l18)
 
48:
(debark c4 l18)
 
49:
(board c10 l18)
 
50:
(sail l18 l9)
 
51:
(sail l9 l10)
 
52:
(debark c10 l10)
 
53:
(sail l10 l9)
 
54:
(sail l9 l39)
 
55:
(board c17 l39)
 
56:
(sail l39 l9)
 
57:
(sail l9 l28)
 
58:
(debark c17 l28)
 
59:
(sail l28 l9)
 
60:
(sail l9 l37)
 
61:
(board c7 l37)
 
62:
(sail l37 l9)
 
63:
(sail l9 l3)
 
64:
(debark c7 l3)
 
65:
(board c1 l3)
 
66:
(sail l3 l9)
 
67:
(debark c1 l9)
 
68:
(sail l9 l7)
 
69:
(sail l7 l33)
 
70:
(board c14 l33)
 
71:
(sail l33 l7)
 
72:
(sail l7 l30)
 
73:
(debark c14 l30)
 
74:
(sail l30 l7)
 
75:
(sail l7 l31)
 
76:
(board c15 l31)
 
77:
(sail l31 l7)
 
78:
(sail l7 l11)
 
79:
(debark c15 l11)
 
80:
(sail l11 l7)
 
81:
(sail l7 l22)
 
82:
(board c13 l22)
 
83:
(sail l22 l7)
 
84:
(sail l7 l17)
 
85:
(debark c13 l17)
 
86:
(sail l17 l7)
 
87:
(sail l7 l13)
 
88:
(board c11 l13)
 
89:
(sail l13 l7)
 
90:
(sail l7 l32)
 
91:
(debark c11 l32)
 
92:
(sail l32 l7)
 
93:
(sail l7 l12)
 
94:
(board c20 l12)
 
95:
(sail l12 l7)
 
96:
(debark c20 l7)
 

Plan Validation details
-----------------------

Checking next happening (time 1)
Deleting (at-ferry l25)
Adding (at-ferry l9)

Checking next happening (time 2)
Deleting (at c9 l9)
Deleting (empty-ferry)
Adding (on c9)

Checking next happening (time 3)
Deleting (at-ferry l9)
Adding (at-ferry l24)

Checking next happening (time 4)
Deleting (on c9)
Adding (at c9 l24)
Adding (empty-ferry)

Checking next happening (time 5)
Deleting (at c19 l24)
Deleting (empty-ferry)
Adding (on c19)

Checking next happening (time 6)
Deleting (at-ferry l24)
Adding (at-ferry l9)

Checking next happening (time 7)
Deleting (at-ferry l9)
Adding (at-ferry l26)

Checking next happening (time 8)
Deleting (on c19)
Adding (at c19 l26)
Adding (empty-ferry)

Checking next happening (time 9)
Deleting (at c18 l26)
Deleting (empty-ferry)
Adding (on c18)

Checking next happening (time 10)
Deleting (at-ferry l26)
Adding (at-ferry l9)

Checking next happening (time 11)
Deleting (at-ferry l9)
Adding (at-ferry l11)

Checking next happening (time 12)
Deleting (on c18)
Adding (at c18 l11)
Adding (empty-ferry)

Checking next happening (time 13)
Deleting (at-ferry l11)
Adding (at-ferry l7)

Checking next happening (time 14)
Deleting (at c0 l7)
Deleting (empty-ferry)
Adding (on c0)

Checking next happening (time 15)
Deleting (at-ferry l7)
Adding (at-ferry l29)

Checking next happening (time 16)
Deleting (on c0)
Adding (at c0 l29)
Adding (empty-ferry)

Checking next happening (time 17)
Deleting (at c12 l29)
Deleting (empty-ferry)
Adding (on c12)

Checking next happening (time 18)
Deleting (at-ferry l29)
Adding (at-ferry l39)

Checking next happening (time 19)
Deleting (on c12)
Adding (at c12 l39)
Adding (empty-ferry)

Checking next happening (time 20)
Deleting (at c8 l39)
Deleting (empty-ferry)
Adding (on c8)

Checking next happening (time 21)
Deleting (at-ferry l39)
Adding (at-ferry l29)

Checking next happening (time 22)
Deleting (on c8)
Adding (at c8 l29)
Adding (empty-ferry)

Checking next happening (time 23)
Deleting (at-ferry l29)
Adding (at-ferry l9)

Checking next happening (time 24)
Deleting (at-ferry l9)
Adding (at-ferry l40)

Checking next happening (time 25)
Deleting (at c16 l40)
Deleting (empty-ferry)
Adding (on c16)

Checking next happening (time 26)
Deleting (at-ferry l40)
Adding (at-ferry l9)

Checking next happening (time 27)
Deleting (at-ferry l9)
Adding (at-ferry l15)

Checking next happening (time 28)
Deleting (on c16)
Adding (at c16 l15)
Adding (empty-ferry)

Checking next happening (time 29)
Deleting (at c2 l15)
Deleting (empty-ferry)
Adding (on c2)

Checking next happening (time 30)
Deleting (at-ferry l15)
Adding (at-ferry l9)

Checking next happening (time 31)
Deleting (at-ferry l9)
Adding (at-ferry l5)

Checking next happening (time 32)
Deleting (on c2)
Adding (at c2 l5)
Adding (empty-ferry)

Checking next happening (time 33)
Deleting (at-ferry l5)
Adding (at-ferry l9)

Checking next happening (time 34)
Deleting (at-ferry l9)
Adding (at-ferry l4)

Checking next happening (time 35)
Deleting (at c3 l4)
Deleting (empty-ferry)
Adding (on c3)

Checking next happening (time 36)
Deleting (at-ferry l4)
Adding (at-ferry l9)

Checking next happening (time 37)
Deleting (at-ferry l9)
Adding (at-ferry l27)

Checking next happening (time 38)
Deleting (on c3)
Adding (at c3 l27)
Adding (empty-ferry)

Checking next happening (time 39)
Deleting (at-ferry l27)
Adding (at-ferry l9)

Checking next happening (time 40)
Deleting (at-ferry l9)
Adding (at-ferry l39)

Checking next happening (time 41)
Deleting (at c6 l39)
Deleting (empty-ferry)
Adding (on c6)

Checking next happening (time 42)
Deleting (at-ferry l39)
Adding (at-ferry l34)

Checking next happening (time 43)
Deleting (on c6)
Adding (at c6 l34)
Adding (empty-ferry)

Checking next happening (time 44)
Deleting (at-ferry l34)
Adding (at-ferry l9)

Checking next happening (time 45)
Deleting (at-ferry l9)
Adding (at-ferry l39)

Checking next happening (time 46)
Deleting (at c4 l39)
Deleting (empty-ferry)
Adding (on c4)

Checking next happening (time 47)
Deleting (at-ferry l39)
Adding (at-ferry l18)

Checking next happening (time 48)
Deleting (on c4)
Adding (at c4 l18)
Adding (empty-ferry)

Checking next happening (time 49)
Deleting (at c10 l18)
Deleting (empty-ferry)
Adding (on c10)

Checking next happening (time 50)
Deleting (at-ferry l18)
Adding (at-ferry l9)

Checking next happening (time 51)
Deleting (at-ferry l9)
Adding (at-ferry l10)

Checking next happening (time 52)
Deleting (on c10)
Adding (at c10 l10)
Adding (empty-ferry)

Checking next happening (time 53)
Deleting (at-ferry l10)
Adding (at-ferry l9)

Checking next happening (time 54)
Deleting (at-ferry l9)
Adding (at-ferry l39)

Checking next happening (time 55)
Deleting (at c17 l39)
Deleting (empty-ferry)
Adding (on c17)

Checking next happening (time 56)
Deleting (at-ferry l39)
Adding (at-ferry l9)

Checking next happening (time 57)
Deleting (at-ferry l9)
Adding (at-ferry l28)

Checking next happening (time 58)
Deleting (on c17)
Adding (at c17 l28)
Adding (empty-ferry)

Checking next happening (time 59)
Deleting (at-ferry l28)
Adding (at-ferry l9)

Checking next happening (time 60)
Deleting (at-ferry l9)
Adding (at-ferry l37)

Checking next happening (time 61)
Deleting (at c7 l37)
Deleting (empty-ferry)
Adding (on c7)

Checking next happening (time 62)
Deleting (at-ferry l37)
Adding (at-ferry l9)

Checking next happening (time 63)
Deleting (at-ferry l9)
Adding (at-ferry l3)

Checking next happening (time 64)
Deleting (on c7)
Adding (at c7 l3)
Adding (empty-ferry)

Checking next happening (time 65)
Deleting (at c1 l3)
Deleting (empty-ferry)
Adding (on c1)

Checking next happening (time 66)
Deleting (at-ferry l3)
Adding (at-ferry l9)

Checking next happening (time 67)
Deleting (on c1)
Adding (at c1 l9)
Adding (empty-ferry)

Checking next happening (time 68)
Deleting (at-ferry l9)
Adding (at-ferry l7)

Checking next happening (time 69)
Deleting (at-ferry l7)
Adding (at-ferry l33)

Checking next happening (time 70)
Deleting (at c14 l33)
Deleting (empty-ferry)
Adding (on c14)

Checking next happening (time 71)
Deleting (at-ferry l33)
Adding (at-ferry l7)

Checking next happening (time 72)
Deleting (at-ferry l7)
Adding (at-ferry l30)

Checking next happening (time 73)
Deleting (on c14)
Adding (at c14 l30)
Adding (empty-ferry)

Checking next happening (time 74)
Deleting (at-ferry l30)
Adding (at-ferry l7)

Checking next happening (time 75)
Deleting (at-ferry l7)
Adding (at-ferry l31)

Checking next happening (time 76)
Deleting (at c15 l31)
Deleting (empty-ferry)
Adding (on c15)

Checking next happening (time 77)
Deleting (at-ferry l31)
Adding (at-ferry l7)

Checking next happening (time 78)
Deleting (at-ferry l7)
Adding (at-ferry l11)

Checking next happening (time 79)
Deleting (on c15)
Adding (at c15 l11)
Adding (empty-ferry)

Checking next happening (time 80)
Deleting (at-ferry l11)
Adding (at-ferry l7)

Checking next happening (time 81)
Deleting (at-ferry l7)
Adding (at-ferry l22)

Checking next happening (time 82)
Deleting (at c13 l22)
Deleting (empty-ferry)
Adding (on c13)

Checking next happening (time 83)
Deleting (at-ferry l22)
Adding (at-ferry l7)

Checking next happening (time 84)
Deleting (at-ferry l7)
Adding (at-ferry l17)

Checking next happening (time 85)
Deleting (on c13)
Adding (at c13 l17)
Adding (empty-ferry)

Checking next happening (time 86)
Deleting (at-ferry l17)
Adding (at-ferry l7)

Checking next happening (time 87)
Deleting (at-ferry l7)
Adding (at-ferry l13)

Checking next happening (time 88)
Deleting (at c11 l13)
Deleting (empty-ferry)
Adding (on c11)

Checking next happening (time 89)
Deleting (at-ferry l13)
Adding (at-ferry l7)

Checking next happening (time 90)
Deleting (at-ferry l7)
Adding (at-ferry l32)

Checking next happening (time 91)
Deleting (on c11)
Adding (at c11 l32)
Adding (empty-ferry)

Checking next happening (time 92)
Deleting (at-ferry l32)
Adding (at-ferry l7)

Checking next happening (time 93)
Deleting (at-ferry l7)
Adding (at-ferry l12)

Checking next happening (time 94)
Deleting (at c20 l12)
Deleting (empty-ferry)
Adding (on c20)

Checking next happening (time 95)
Deleting (at-ferry l12)
Adding (at-ferry l7)

Checking next happening (time 96)
Deleting (on c20)
Adding (at c20 l7)
Adding (empty-ferry)
Plan executed successfully - checking goal
Plan valid
Final value: 96 

Successful plans:
Value: 96
 /home/jfan5/Safety-gen/runs/benchmark/optic/ferry_20260205_141548/ferry/optic_results/ferry-l41-c21-s41001.plan 96
